NAME: tsp15_21
COMMENT: 15-tsp problem (Padberg/Rinaldi)
TYPE: TSP
DIMENSION: 15
EDGE_WEIGHT_TYPE : EUC_2D
NODE_COORD_SECTION
1 21 28
2 21 33
3 24 25
4 28 26
5 7 2
6 25 18
7 36 39
8 16 9
9 1 19
10 26 37
11 26 24
12 23 2
13 17 7
14 23 10
15 25 8
